data;
param f := 1;
param N := 4;
param M := 3;
param tMax := 6;
# param BigM := 100;
# It was noticed that for tMax = 5 not feasible solution
# T1 - NULL
# T2 - SEND PREPREQ
# T3 - RECEIVED PREPREQ
# T4 - SEND PREPRESPONSE
# T5 - RECEIVED PREPRESPONSE
# T6 - RELAYED BLOCK
